10,1,10,2,1,1,8,4,8,5,5,5,8,7,6,7,1,8,2,10;10,3,1,2,3,5,5,7,9,8,7,8,4,9,9,10;6,1,2,2,3,4,10,5,4,6,2,7,8,9,8,10;3,2,5,1,2,3,4,4,2,5,7,7,3,6,5,8,4,7,4,8,5,10;8,1,7,1,3,3,4,3,5,4,8,6,10,7,9,9,7,9,6,9,6,10;9,1,8,2,9,3,5,3,2,4,4,5,2,6,5,9,1,9,3,10;3,1,9,2,10,4,6,5,6,6,8,8,1,5,1,7,2,8,3,9;6,2,8,3,7,5,6,4,5,6,1,3,1,4,3,8,2,9,1,10;4,1,7,2,7,3,7,4,6,3,9,5,7,6,9,7,10,8,6,8,7,10,4,10;2,1,4,2,5,2,9,4,9,6,10,6,3,7,1,6,10,9,10,10;
